c Output_time 26.03.2020 18:13:28_+0100 1585242808864603210
c ** Program information **
c program_name                          "QBRG_debug"
c version                               "0.3.20"
c date                                  "25.3.2020"
c gid_id                                "673970833836058123f633335630c185360d632e"
c author                                "Oliver Kullmann"
c url                                   "https://github.com/OKullmann/oklibrary/blob/master/Satisfiability/Transformers/Generators/Random/QBRG.cpp"
c ** Machine information **
c machine_name                          "chyna-Lenovo-G50-70"
c bogomips                              3791.08
c ** Compilation information **
c compiler_version                      "g++ 7.5.0"
c compilation_date                      "Mar_26_2020 11:16:30"
c compilation_options                   "--std=c++17 -pedantic -fmax-errors=5 -Wall -Wextra -g -D_GLIBCXX_DEBUG"
c NDEBUG                                0
c OPTIMIZE                              0
c ** Parameters **
c command-line                          "./QBRG_debug" "e40 a40 40" "539*1,1|2-2,1|3-3,1" "" "1,t" ""
c output                                "QuBlRaGe_120_539_1585242808864444400.qdimacs"
c options                               "filtered,renamed"
c num_quantifier_blocks                 3
c  quantifier_blocks                    1:e1-40 2:a41-80 3:e81-120
c num_clause-blocks                     1
c  clause-blocks                        539 * {1-40,1,1/2} | {41-80,1,1/2} | {81-120,1,1/2}
c num_e-seeds                           30+2=32
c  e-seeds                              1 0 1 0 4 120 2 40 1 40 0 40 1 539 3 1 1 1 1 2 2 2 1 1 2 3 3 1 1 2 1 1585242808864443583
p cnf 120 539
e 1 2 3 4 5 6 7 8 9 10 11 12 13 14 15 16 17 18 19 20 21 22 23 24 25 26 27 28 29 30 31 32 33 34 35 36 37 38 39 40 0
a 41 42 43 44 45 46 47 48 49 50 51 52 53 54 55 56 57 58 59 60 61 62 63 64 65 66 67 68 69 70 71 72 73 74 75 76 77 78 79 80 0
e 81 82 83 84 85 86 87 88 89 90 91 92 93 94 95 96 97 98 99 100 101 102 103 104 105 106 107 108 109 110 111 112 113 114 115 116 117 118 119 120 0
19 -58 -81 0
-32 -58 -81 0
-23 67 -81 0
39 77 -81 0
-1 -43 81 0
13 -46 81 0
-16 46 81 0
-4 50 81 0
-1 -58 81 0
38 -62 81 0
40 -65 81 0
-20 -66 81 0
28 -69 81 0
32 -69 81 0
-32 -41 -82 0
-22 -48 -82 0
35 -48 -82 0
-35 50 -82 0
39 56 -82 0
-16 63 -82 0
13 -47 82 0
12 47 82 0
3 -57 82 0
-15 65 82 0
4 68 82 0
1 -80 82 0
-36 -43 -83 0
-20 47 -83 0
35 -51 -83 0
38 -51 -83 0
31 -66 -83 0
26 67 -83 0
24 -71 -83 0
-2 72 -83 0
32 -53 83 0
40 55 83 0
27 -60 83 0
25 63 83 0
-32 64 83 0
7 73 83 0
15 74 83 0
13 77 83 0
-26 44 -84 0
-40 47 -84 0
-39 51 -84 0
-4 -60 -84 0
-40 -60 -84 0
29 62 -84 0
7 -71 -84 0
32 -78 -84 0
26 -80 -84 0
-1 46 84 0
20 -49 84 0
35 -50 84 0
11 -51 84 0
-15 -62 84 0
-12 70 84 0
-15 76 84 0
13 -42 -85 0
17 -48 -85 0
-39 52 -85 0
2 -56 85 0
28 -70 85 0
38 -76 85 0
-11 42 -86 0
-16 -47 -86 0
27 -50 -86 0
13 58 -86 0
23 -67 -86 0
27 74 -86 0
-32 41 86 0
5 -43 86 0
-22 45 86 0
33 -46 86 0
-30 48 86 0
-28 -58 86 0
-37 -63 86 0
2 66 86 0
20 73 86 0
-24 74 86 0
-35 -76 86 0
-34 77 86 0
25 48 -87 0
18 51 -87 0
-37 54 -87 0
34 -62 -87 0
-17 -64 -87 0
38 65 -87 0
-2 -67 -87 0
17 -69 -87 0
39 -76 -87 0
-22 -79 -87 0
-2 79 -87 0
-30 -43 87 0
-15 -45 87 0
-1 60 87 0
-3 64 87 0
14 68 87 0
-29 69 87 0
40 69 87 0
-4 75 87 0
-36 -42 -88 0
-31 -53 -88 0
-33 -56 -88 0
-22 65 -88 0
10 79 -88 0
19 -42 88 0
28 -48 88 0
33 -58 88 0
-19 -64 88 0
11 75 88 0
-38 76 88 0
23 -44 -89 0
-11 -46 -89 0
1 -52 -89 0
-37 -67 -89 0
35 77 -89 0
-37 42 89 0
21 -51 89 0
-7 -52 89 0
16 57 89 0
4 -62 89 0
6 -65 89 0
34 67 89 0
-8 -72 89 0
34 49 -90 0
25 -56 -90 0
-14 56 -90 0
-5 60 -90 0
-17 61 -90 0
-37 -64 -90 0
-19 72 -90 0
22 -76 -90 0
6 80 -90 0
-32 42 90 0
36 -52 90 0
-19 58 90 0
-40 -74 90 0
38 -77 90 0
-35 41 -91 0
-38 41 -91 0
-34 -50 -91 0
23 -67 -91 0
11 68 -91 0
27 -76 -91 0
-34 -76 -91 0
28 -53 91 0
-39 -62 91 0
3 64 91 0
-3 70 91 0
31 -79 91 0
5 48 -92 0
-9 -54 -92 0
-4 -59 -92 0
-37 -62 -92 0
21 -65 -92 0
-8 -72 -92 0
33 73 -92 0
22 74 -92 0
5 76 -92 0
36 78 -92 0
-30 50 92 0
-34 56 92 0
-24 60 92 0
10 78 92 0
-19 -64 -93 0
-40 67 -93 0
-8 -69 -93 0
25 74 -93 0
-37 -76 -93 0
-39 46 93 0
11 59 93 0
-37 60 93 0
28 -61 93 0
-29 61 93 0
10 66 93 0
-38 -76 93 0
20 -41 -94 0
38 50 -94 0
-26 -51 -94 0
30 54 -94 0
17 -80 -94 0
-21 -44 94 0
-38 -46 94 0
37 49 94 0
12 -64 94 0
-34 -65 94 0
18 -71 94 0
-25 75 94 0
-17 -43 -95 0
10 53 -95 0
1 54 -95 0
15 -61 -95 0
26 -64 -95 0
30 -73 -95 0
-3 75 -95 0
36 44 95 0
-2 45 95 0
-9 60 95 0
22 -69 95 0
19 -79 95 0
27 79 95 0
-7 43 -96 0
-35 -46 -96 0
19 47 -96 0
14 -51 -96 0
-1 51 -96 0
27 51 -96 0
3 52 -96 0
-19 -54 -96 0
15 -65 -96 0
-2 -77 -96 0
3 53 96 0
30 -67 96 0
-37 68 96 0
16 79 96 0
17 -43 -97 0
-37 -43 -97 0
-20 -53 -97 0
-16 -63 -97 0
20 65 -97 0
18 71 -97 0
16 -51 97 0
-33 -63 97 0
-27 -71 97 0
24 -78 97 0
5 78 97 0
-18 -46 -98 0
-29 46 -98 0
25 -53 -98 0
-34 65 -98 0
3 -68 -98 0
-17 -44 98 0
-6 46 98 0
19 51 98 0
-29 -55 98 0
33 60 98 0
-35 -70 98 0
27 45 -99 0
-14 57 -99 0
8 68 -99 0
34 78 -99 0
37 45 99 0
38 50 99 0
18 52 99 0
-11 -53 99 0
-12 56 99 0
38 -60 99 0
37 62 99 0
26 -69 99 0
-30 -71 99 0
-18 76 99 0
1 -47 -100 0
-26 57 -100 0
17 -59 -100 0
28 -60 -100 0
21 -62 -100 0
-24 -49 100 0
-16 -62 100 0
27 74 100 0
-21 41 -101 0
6 -44 -101 0
7 57 -101 0
-25 57 -101 0
10 -63 -101 0
27 -74 -101 0
-3 -80 -101 0
-19 -80 -101 0
-28 -46 101 0
-23 46 101 0
15 53 101 0
-15 -55 101 0
-25 -61 101 0
-10 65 101 0
7 -67 101 0
-26 78 101 0
6 49 -102 0
23 60 -102 0
-33 -62 -102 0
-20 69 -102 0
-37 -77 -102 0
17 79 -102 0
-9 -48 102 0
-4 -54 102 0
-6 -74 102 0
-1 76 102 0
-29 42 -103 0
14 59 -103 0
2 -80 -103 0
26 -46 103 0
15 49 103 0
25 -51 103 0
36 51 103 0
-14 -60 103 0
27 -77 103 0
-12 41 -104 0
-8 -55 -104 0
37 -60 -104 0
-33 -73 -104 0
37 73 -104 0
-37 -45 104 0
-16 47 104 0
-32 -50 104 0
-33 -50 104 0
-26 68 104 0
37 -79 104 0
-23 -52 -105 0
35 -53 -105 0
-6 54 -105 0
-29 54 -105 0
1 61 -105 0
-36 62 -105 0
25 68 -105 0
-8 -73 -105 0
-4 -76 -105 0
32 47 105 0
3 55 105 0
37 -61 105 0
26 75 105 0
-27 80 105 0
21 -45 -106 0
-24 56 -106 0
12 -57 -106 0
16 59 -106 0
27 63 -106 0
20 65 -106 0
-26 66 -106 0
18 -68 -106 0
3 -70 -106 0
35 74 -106 0
31 42 106 0
40 -47 106 0
-33 49 106 0
-2 51 106 0
-20 -54 106 0
4 -56 106 0
-4 56 106 0
-15 63 106 0
21 -66 106 0
-36 71 106 0
-2 74 106 0
11 42 -107 0
-30 63 -107 0
11 -68 -107 0
-36 -78 -107 0
-30 53 107 0
-38 54 107 0
-1 55 107 0
-26 57 107 0
-14 -71 107 0
21 -76 107 0
-37 -80 107 0
12 80 107 0
36 -41 -108 0
24 -50 -108 0
7 56 -108 0
-34 -58 -108 0
-25 -69 -108 0
-31 70 -108 0
-37 -71 -108 0
17 76 -108 0
-2 -42 108 0
23 54 108 0
-34 55 108 0
-23 -57 108 0
-17 58 108 0
-16 -67 108 0
24 70 108 0
40 -76 108 0
35 -78 108 0
30 -80 108 0
18 -41 -109 0
22 -50 -109 0
21 -53 -109 0
-12 61 -109 0
-19 68 -109 0
31 -76 -109 0
16 52 109 0
-30 52 109 0
16 -64 109 0
19 64 109 0
27 -66 109 0
-38 -71 109 0
16 -75 109 0
-2 77 109 0
16 -61 -110 0
-1 62 -110 0
18 66 -110 0
13 -69 -110 0
-18 -70 -110 0
18 -75 -110 0
-30 78 -110 0
33 -79 -110 0
37 41 110 0
-36 -47 110 0
16 -48 110 0
-8 77 110 0
-1 -79 110 0
-38 -46 -111 0
10 -47 -111 0
-1 49 -111 0
-19 -51 -111 0
-29 54 -111 0
-13 58 -111 0
28 -60 -111 0
-4 -64 -111 0
-8 73 -111 0
32 74 -111 0
-8 -77 -111 0
-3 45 111 0
-25 -58 111 0
4 73 111 0
-26 76 111 0
11 -42 -112 0
-9 -43 -112 0
-12 44 -112 0
35 -49 -112 0
-27 62 -112 0
-26 -70 -112 0
12 -47 112 0
9 -50 112 0
-22 -60 112 0
-25 -64 112 0
8 -72 112 0
40 72 112 0
1 -45 -113 0
-33 -48 -113 0
34 -49 -113 0
-1 53 -113 0
35 -55 -113 0
-28 61 -113 0
-24 -79 -113 0
26 -48 113 0
18 -50 113 0
21 -67 113 0
38 -67 113 0
-24 67 113 0
17 70 113 0
29 -73 113 0
-19 74 113 0
40 -75 113 0
-3 76 113 0
-21 76 113 0
-30 45 -114 0
38 50 -114 0
30 51 -114 0
18 55 -114 0
-12 56 -114 0
26 59 -114 0
-8 60 -114 0
-20 62 -114 0
37 -72 -114 0
12 80 -114 0
40 43 114 0
24 45 114 0
1 -46 114 0
-26 52 114 0
-31 -58 114 0
-24 -59 114 0
23 63 114 0
27 -64 114 0
-16 -42 -115 0
26 -51 -115 0
32 55 -115 0
25 -57 -115 0
30 -60 -115 0
-18 -65 -115 0
-2 70 -115 0
-3 75 -115 0
22 -76 -115 0
37 -80 -115 0
-39 56 115 0
37 59 115 0
-30 -74 115 0
12 -77 115 0
-23 -41 -116 0
3 -43 -116 0
-37 -43 -116 0
-9 -47 -116 0
4 47 -116 0
-15 54 -116 0
31 58 -116 0
40 63 -116 0
-32 -41 116 0
-17 41 116 0
-36 55 116 0
-33 -57 116 0
39 -60 116 0
-14 -62 116 0
-7 70 116 0
9 80 116 0
-13 -41 -117 0
-29 41 -117 0
-13 48 -117 0
-33 48 -117 0
1 -56 -117 0
24 -74 -117 0
37 -77 -117 0
-6 -43 117 0
24 -45 117 0
2 -52 117 0
35 -54 117 0
13 76 117 0
37 77 117 0
-15 -46 -118 0
-35 48 -118 0
25 -53 -118 0
-4 -62 -118 0
-6 -62 -118 0
27 -76 -118 0
-35 77 -118 0
31 80 -118 0
-1 47 118 0
-23 58 118 0
29 -69 118 0
14 44 -119 0
-1 -45 -119 0
26 -50 -119 0
6 -53 -119 0
-33 -56 -119 0
-17 -63 -119 0
18 68 -119 0
27 75 -119 0
6 -79 -119 0
25 79 -119 0
-37 -80 -119 0
-25 48 119 0
39 -68 119 0
-14 -80 119 0
22 -46 -120 0
-17 51 -120 0
-18 -52 -120 0
-28 -53 -120 0
20 -54 -120 0
-20 54 -120 0
34 42 120 0
20 -55 120 0
5 -63 120 0
37 73 120 0
